\* Stac_MILP *\
Minimize
OBJ: 50 g_0_A + 50 g_0_B + 50 g_1_A + 50 g_1_B + 50 g_2_A + 50 g_2_B
 + 50 g_3_A + 50 g_3_B + 50 g_4_A + 50 g_4_B
Subject To
c01_sumT_0: T_0_0 + T_1_0 + T_2_0 + T_3_0 + T_4_0 + T__1_0 + T__2_0 + T__3_0
 + T__4_0 = 1
c01_sumT_1: T_0_1 + T_1_1 + T_2_1 + T_3_1 + T_4_1 + T__1_1 + T__2_1 + T__3_1
 + T__4_1 = 1
c01_sumT_2: T_0_2 + T_1_2 + T_2_2 + T_3_2 + T_4_2 + T__1_2 + T__2_2 + T__3_2
 + T__4_2 = 1
c02_Tpos: T_1_0 + T_2_0 + T_3_0 + T_4_0 = 1
c03_Tneg: T__1_2 + T__2_2 + T__3_2 + T__4_2 = 1
c04_TRdecr_j0_m0: T_0_0 - T_0_1 + T_1_0 + T_2_0 + T_3_0 + T_4_0 >= 0
c04_TRdecr_j0_m1: T_0_1 - T_0_2 + T_1_1 + T_2_1 + T_3_1 + T_4_1 >= 0
c04_TRdecr_j1_m0: T_1_0 - T_1_1 + T_2_0 + T_3_0 + T_4_0 >= 0
c04_TRdecr_j1_m1: T_1_1 - T_1_2 + T_2_1 + T_3_1 + T_4_1 >= 0
c04_TRdecr_j2_m0: T_2_0 - T_2_1 + T_3_0 + T_4_0 >= 0
c04_TRdecr_j2_m1: T_2_1 - T_2_2 + T_3_1 + T_4_1 >= 0
c04_TRdecr_j3_m0: T_3_0 - T_3_1 + T_4_0 >= 0
c04_TRdecr_j3_m1: T_3_1 - T_3_2 + T_4_1 >= 0
c04_TRdecr_j4_m0: T_4_0 - T_4_1 >= 0
c04_TRdecr_j4_m1: T_4_1 - T_4_2 >= 0
c04_TRdecr_j_1_m0: T_0_0 + T_1_0 + T_2_0 + T_3_0 + T_4_0 + T__1_0 - T__1_1
 >= 0
c04_TRdecr_j_1_m1: T_0_1 + T_1_1 + T_2_1 + T_3_1 + T_4_1 + T__1_1 - T__1_2
 >= 0
c04_TRdecr_j_2_m0: T_0_0 + T_1_0 + T_2_0 + T_3_0 + T_4_0 + T__1_0 + T__2_0
 - T__2_1 >= 0
c04_TRdecr_j_2_m1: T_0_1 + T_1_1 + T_2_1 + T_3_1 + T_4_1 + T__1_1 + T__2_1
 - T__2_2 >= 0
c04_TRdecr_j_3_m0: T_0_0 + T_1_0 + T_2_0 + T_3_0 + T_4_0 + T__1_0 + T__2_0
 + T__3_0 - T__3_1 >= 0
c04_TRdecr_j_3_m1: T_0_1 + T_1_1 + T_2_1 + T_3_1 + T_4_1 + T__1_1 + T__2_1
 + T__3_1 - T__3_2 >= 0
c04_TRdecr_j_4_m0: T_0_0 + T_1_0 + T_2_0 + T_3_0 + T_4_0 + T__1_0 + T__2_0
 + T__3_0 + T__4_0 - T__4_1 >= 0
c04_TRdecr_j_4_m1: T_0_1 + T_1_1 + T_2_1 + T_3_1 + T_4_1 + T__1_1 + T__2_1
 + T__3_1 + T__4_1 - T__4_2 >= 0
c05_sumC_iA: c_0_A + c_1_A + c_2_A + c_3_A + c_4_A = 50
c05_sumC_iB: c_0_B + c_1_B + c_2_B + c_3_B + c_4_B = 50
c06_d_k0_j0_m0_iA: - 50 T_0_0 - 0.990049833749 c_0_A + d_0_0_0_A >= -50
c06_d_k0_j0_m0_iB: - 50 T_0_0 - 0.980198673307 c_0_B + d_0_0_0_B >= -50
c06_d_k0_j0_m1_iA: - 50 T_0_1 - 0.00990049833749 c_0_A + d_0_0_1_A >= -50
c06_d_k0_j0_m1_iB: - 50 T_0_1 - 0.0196039734661 c_0_B + d_0_0_1_B >= -50
c06_d_k0_j0_m2_iA: - 50 T_0_2 - 4.96679133402e-05 c_0_A + d_0_0_2_A >= -50
c06_d_k0_j0_m2_iB: - 50 T_0_2 - 0.00019735322711 c_0_B + d_0_0_2_B >= -50
c06_d_k0_j1_m0_iA: - 50 T_1_0 - 0.990049833749 c_0_A + d_0_1_0_A >= -50
c06_d_k0_j1_m0_iB: - 50 T_1_0 - 0.980198673307 c_0_B + d_0_1_0_B >= -50
c06_d_k0_j1_m1_iA: - 50 T_1_1 - 0.00990049833749 c_0_A + d_0_1_1_A >= -50
c06_d_k0_j1_m1_iB: - 50 T_1_1 - 0.0196039734661 c_0_B + d_0_1_1_B >= -50
c06_d_k0_j1_m2_iA: - 50 T_1_2 - 4.96679133402e-05 c_0_A + d_0_1_2_A >= -50
c06_d_k0_j1_m2_iB: - 50 T_1_2 - 0.00019735322711 c_0_B + d_0_1_2_B >= -50
c06_d_k0_j2_m0_iA: - 50 T_2_0 - 0.990049833749 c_0_A + d_0_2_0_A >= -50
c06_d_k0_j2_m0_iB: - 50 T_2_0 - 0.980198673307 c_0_B + d_0_2_0_B >= -50
c06_d_k0_j2_m1_iA: - 50 T_2_1 - 0.00990049833749 c_0_A + d_0_2_1_A >= -50
c06_d_k0_j2_m1_iB: - 50 T_2_1 - 0.0196039734661 c_0_B + d_0_2_1_B >= -50
c06_d_k0_j2_m2_iA: - 50 T_2_2 - 4.96679133402e-05 c_0_A + d_0_2_2_A >= -50
c06_d_k0_j2_m2_iB: - 50 T_2_2 - 0.00019735322711 c_0_B + d_0_2_2_B >= -50
c06_d_k0_j3_m0_iA: - 50 T_3_0 - 0.990049833749 c_0_A + d_0_3_0_A >= -50
c06_d_k0_j3_m0_iB: - 50 T_3_0 - 0.980198673307 c_0_B + d_0_3_0_B >= -50
c06_d_k0_j3_m1_iA: - 50 T_3_1 - 0.00990049833749 c_0_A + d_0_3_1_A >= -50
c06_d_k0_j3_m1_iB: - 50 T_3_1 - 0.0196039734661 c_0_B + d_0_3_1_B >= -50
c06_d_k0_j3_m2_iA: - 50 T_3_2 - 4.96679133402e-05 c_0_A + d_0_3_2_A >= -50
c06_d_k0_j3_m2_iB: - 50 T_3_2 - 0.00019735322711 c_0_B + d_0_3_2_B >= -50
c06_d_k0_j4_m0_iA: - 50 T_4_0 - 0.990049833749 c_0_A + d_0_4_0_A >= -50
c06_d_k0_j4_m0_iB: - 50 T_4_0 - 0.980198673307 c_0_B + d_0_4_0_B >= -50
c06_d_k0_j4_m1_iA: - 50 T_4_1 - 0.00990049833749 c_0_A + d_0_4_1_A >= -50
c06_d_k0_j4_m1_iB: - 50 T_4_1 - 0.0196039734661 c_0_B + d_0_4_1_B >= -50
c06_d_k0_j4_m2_iA: - 50 T_4_2 - 4.96679133402e-05 c_0_A + d_0_4_2_A >= -50
c06_d_k0_j4_m2_iB: - 50 T_4_2 - 0.00019735322711 c_0_B + d_0_4_2_B >= -50
c06_d_k0_j_1_m0_iA: - 50 T__1_0 - 0.990049833749 c_0_A + d_0__1_0_A >= -50
c06_d_k0_j_1_m0_iB: - 50 T__1_0 - 0.980198673307 c_0_B + d_0__1_0_B >= -50
c06_d_k0_j_1_m1_iA: - 50 T__1_1 - 0.00990049833749 c_0_A + d_0__1_1_A >= -50
c06_d_k0_j_1_m1_iB: - 50 T__1_1 - 0.0196039734661 c_0_B + d_0__1_1_B >= -50
c06_d_k0_j_1_m2_iA: - 50 T__1_2 - 4.96679133402e-05 c_0_A + d_0__1_2_A >= -50
c06_d_k0_j_1_m2_iB: - 50 T__1_2 - 0.00019735322711 c_0_B + d_0__1_2_B >= -50
c06_d_k0_j_2_m0_iA: - 50 T__2_0 - 0.990049833749 c_0_A + d_0__2_0_A >= -50
c06_d_k0_j_2_m0_iB: - 50 T__2_0 - 0.980198673307 c_0_B + d_0__2_0_B >= -50
c06_d_k0_j_2_m1_iA: - 50 T__2_1 - 0.00990049833749 c_0_A + d_0__2_1_A >= -50
c06_d_k0_j_2_m1_iB: - 50 T__2_1 - 0.0196039734661 c_0_B + d_0__2_1_B >= -50
c06_d_k0_j_2_m2_iA: - 50 T__2_2 - 4.96679133402e-05 c_0_A + d_0__2_2_A >= -50
c06_d_k0_j_2_m2_iB: - 50 T__2_2 - 0.00019735322711 c_0_B + d_0__2_2_B >= -50
c06_d_k0_j_3_m0_iA: - 50 T__3_0 - 0.990049833749 c_0_A + d_0__3_0_A >= -50
c06_d_k0_j_3_m0_iB: - 50 T__3_0 - 0.980198673307 c_0_B + d_0__3_0_B >= -50
c06_d_k0_j_3_m1_iA: - 50 T__3_1 - 0.00990049833749 c_0_A + d_0__3_1_A >= -50
c06_d_k0_j_3_m1_iB: - 50 T__3_1 - 0.0196039734661 c_0_B + d_0__3_1_B >= -50
c06_d_k0_j_3_m2_iA: - 50 T__3_2 - 4.96679133402e-05 c_0_A + d_0__3_2_A >= -50
c06_d_k0_j_3_m2_iB: - 50 T__3_2 - 0.00019735322711 c_0_B + d_0__3_2_B >= -50
c06_d_k0_j_4_m0_iA: - 50 T__4_0 - 0.990049833749 c_0_A + d_0__4_0_A >= -50
c06_d_k0_j_4_m0_iB: - 50 T__4_0 - 0.980198673307 c_0_B + d_0__4_0_B >= -50
c06_d_k0_j_4_m1_iA: - 50 T__4_1 - 0.00990049833749 c_0_A + d_0__4_1_A >= -50
c06_d_k0_j_4_m1_iB: - 50 T__4_1 - 0.0196039734661 c_0_B + d_0__4_1_B >= -50
c06_d_k0_j_4_m2_iA: - 50 T__4_2 - 4.96679133402e-05 c_0_A + d_0__4_2_A >= -50
c06_d_k0_j_4_m2_iB: - 50 T__4_2 - 0.00019735322711 c_0_B + d_0__4_2_B >= -50
c06_d_k1_j0_m0_iA: - 50 T_0_0 - 0.990049833749 c_1_A + d_1_0_0_A >= -50
c06_d_k1_j0_m0_iB: - 50 T_0_0 - 0.980198673307 c_1_B + d_1_0_0_B >= -50
c06_d_k1_j0_m1_iA: - 50 T_0_1 - 0.00990049833749 c_1_A + d_1_0_1_A >= -50
c06_d_k1_j0_m1_iB: - 50 T_0_1 - 0.0196039734661 c_1_B + d_1_0_1_B >= -50
c06_d_k1_j0_m2_iA: - 50 T_0_2 - 4.96679133402e-05 c_1_A + d_1_0_2_A >= -50
c06_d_k1_j0_m2_iB: - 50 T_0_2 - 0.00019735322711 c_1_B + d_1_0_2_B >= -50
c06_d_k1_j1_m0_iA: - 50 T_1_0 - 0.990049833749 c_1_A + d_1_1_0_A >= -50
c06_d_k1_j1_m0_iB: - 50 T_1_0 - 0.980198673307 c_1_B + d_1_1_0_B >= -50
c06_d_k1_j1_m1_iA: - 50 T_1_1 - 0.00990049833749 c_1_A + d_1_1_1_A >= -50
c06_d_k1_j1_m1_iB: - 50 T_1_1 - 0.0196039734661 c_1_B + d_1_1_1_B >= -50
c06_d_k1_j1_m2_iA: - 50 T_1_2 - 4.96679133402e-05 c_1_A + d_1_1_2_A >= -50
c06_d_k1_j1_m2_iB: - 50 T_1_2 - 0.00019735322711 c_1_B + d_1_1_2_B >= -50
c06_d_k1_j2_m0_iA: - 50 T_2_0 - 0.990049833749 c_1_A + d_1_2_0_A >= -50
c06_d_k1_j2_m0_iB: - 50 T_2_0 - 0.980198673307 c_1_B + d_1_2_0_B >= -50
c06_d_k1_j2_m1_iA: - 50 T_2_1 - 0.00990049833749 c_1_A + d_1_2_1_A >= -50
c06_d_k1_j2_m1_iB: - 50 T_2_1 - 0.0196039734661 c_1_B + d_1_2_1_B >= -50
c06_d_k1_j2_m2_iA: - 50 T_2_2 - 4.96679133402e-05 c_1_A + d_1_2_2_A >= -50
c06_d_k1_j2_m2_iB: - 50 T_2_2 - 0.00019735322711 c_1_B + d_1_2_2_B >= -50
c06_d_k1_j3_m0_iA: - 50 T_3_0 - 0.990049833749 c_1_A + d_1_3_0_A >= -50
c06_d_k1_j3_m0_iB: - 50 T_3_0 - 0.980198673307 c_1_B + d_1_3_0_B >= -50
c06_d_k1_j3_m1_iA: - 50 T_3_1 - 0.00990049833749 c_1_A + d_1_3_1_A >= -50
c06_d_k1_j3_m1_iB: - 50 T_3_1 - 0.0196039734661 c_1_B + d_1_3_1_B >= -50
c06_d_k1_j3_m2_iA: - 50 T_3_2 - 4.96679133402e-05 c_1_A + d_1_3_2_A >= -50
c06_d_k1_j3_m2_iB: - 50 T_3_2 - 0.00019735322711 c_1_B + d_1_3_2_B >= -50
c06_d_k1_j4_m0_iA: - 50 T_4_0 - 0.990049833749 c_1_A + d_1_4_0_A >= -50
c06_d_k1_j4_m0_iB: - 50 T_4_0 - 0.980198673307 c_1_B + d_1_4_0_B >= -50
c06_d_k1_j4_m1_iA: - 50 T_4_1 - 0.00990049833749 c_1_A + d_1_4_1_A >= -50
c06_d_k1_j4_m1_iB: - 50 T_4_1 - 0.0196039734661 c_1_B + d_1_4_1_B >= -50
c06_d_k1_j4_m2_iA: - 50 T_4_2 - 4.96679133402e-05 c_1_A + d_1_4_2_A >= -50
c06_d_k1_j4_m2_iB: - 50 T_4_2 - 0.00019735322711 c_1_B + d_1_4_2_B >= -50
c06_d_k1_j_1_m0_iA: - 50 T__1_0 - 0.990049833749 c_1_A + d_1__1_0_A >= -50
c06_d_k1_j_1_m0_iB: - 50 T__1_0 - 0.980198673307 c_1_B + d_1__1_0_B >= -50
c06_d_k1_j_1_m1_iA: - 50 T__1_1 - 0.00990049833749 c_1_A + d_1__1_1_A >= -50
c06_d_k1_j_1_m1_iB: - 50 T__1_1 - 0.0196039734661 c_1_B + d_1__1_1_B >= -50
c06_d_k1_j_1_m2_iA: - 50 T__1_2 - 4.96679133402e-05 c_1_A + d_1__1_2_A >= -50
c06_d_k1_j_1_m2_iB: - 50 T__1_2 - 0.00019735322711 c_1_B + d_1__1_2_B >= -50
c06_d_k1_j_2_m0_iA: - 50 T__2_0 - 0.990049833749 c_1_A + d_1__2_0_A >= -50
c06_d_k1_j_2_m0_iB: - 50 T__2_0 - 0.980198673307 c_1_B + d_1__2_0_B >= -50
c06_d_k1_j_2_m1_iA: - 50 T__2_1 - 0.00990049833749 c_1_A + d_1__2_1_A >= -50
c06_d_k1_j_2_m1_iB: - 50 T__2_1 - 0.0196039734661 c_1_B + d_1__2_1_B >= -50
c06_d_k1_j_2_m2_iA: - 50 T__2_2 - 4.96679133402e-05 c_1_A + d_1__2_2_A >= -50
c06_d_k1_j_2_m2_iB: - 50 T__2_2 - 0.00019735322711 c_1_B + d_1__2_2_B >= -50
c06_d_k1_j_3_m0_iA: - 50 T__3_0 - 0.990049833749 c_1_A + d_1__3_0_A >= -50
c06_d_k1_j_3_m0_iB: - 50 T__3_0 - 0.980198673307 c_1_B + d_1__3_0_B >= -50
c06_d_k1_j_3_m1_iA: - 50 T__3_1 - 0.00990049833749 c_1_A + d_1__3_1_A >= -50
c06_d_k1_j_3_m1_iB: - 50 T__3_1 - 0.0196039734661 c_1_B + d_1__3_1_B >= -50
c06_d_k1_j_3_m2_iA: - 50 T__3_2 - 4.96679133402e-05 c_1_A + d_1__3_2_A >= -50
c06_d_k1_j_3_m2_iB: - 50 T__3_2 - 0.00019735322711 c_1_B + d_1__3_2_B >= -50
c06_d_k1_j_4_m0_iA: - 50 T__4_0 - 0.990049833749 c_1_A + d_1__4_0_A >= -50
c06_d_k1_j_4_m0_iB: - 50 T__4_0 - 0.980198673307 c_1_B + d_1__4_0_B >= -50
c06_d_k1_j_4_m1_iA: - 50 T__4_1 - 0.00990049833749 c_1_A + d_1__4_1_A >= -50
c06_d_k1_j_4_m1_iB: - 50 T__4_1 - 0.0196039734661 c_1_B + d_1__4_1_B >= -50
c06_d_k1_j_4_m2_iA: - 50 T__4_2 - 4.96679133402e-05 c_1_A + d_1__4_2_A >= -50
c06_d_k1_j_4_m2_iB: - 50 T__4_2 - 0.00019735322711 c_1_B + d_1__4_2_B >= -50
c06_d_k2_j0_m0_iA: - 50 T_0_0 - 0.990049833749 c_2_A + d_2_0_0_A >= -50
c06_d_k2_j0_m0_iB: - 50 T_0_0 - 0.980198673307 c_2_B + d_2_0_0_B >= -50
c06_d_k2_j0_m1_iA: - 50 T_0_1 - 0.00990049833749 c_2_A + d_2_0_1_A >= -50
c06_d_k2_j0_m1_iB: - 50 T_0_1 - 0.0196039734661 c_2_B + d_2_0_1_B >= -50
c06_d_k2_j0_m2_iA: - 50 T_0_2 - 4.96679133402e-05 c_2_A + d_2_0_2_A >= -50
c06_d_k2_j0_m2_iB: - 50 T_0_2 - 0.00019735322711 c_2_B + d_2_0_2_B >= -50
c06_d_k2_j1_m0_iA: - 50 T_1_0 - 0.990049833749 c_2_A + d_2_1_0_A >= -50
c06_d_k2_j1_m0_iB: - 50 T_1_0 - 0.980198673307 c_2_B + d_2_1_0_B >= -50
c06_d_k2_j1_m1_iA: - 50 T_1_1 - 0.00990049833749 c_2_A + d_2_1_1_A >= -50
c06_d_k2_j1_m1_iB: - 50 T_1_1 - 0.0196039734661 c_2_B + d_2_1_1_B >= -50
c06_d_k2_j1_m2_iA: - 50 T_1_2 - 4.96679133402e-05 c_2_A + d_2_1_2_A >= -50
c06_d_k2_j1_m2_iB: - 50 T_1_2 - 0.00019735322711 c_2_B + d_2_1_2_B >= -50
c06_d_k2_j2_m0_iA: - 50 T_2_0 - 0.990049833749 c_2_A + d_2_2_0_A >= -50
c06_d_k2_j2_m0_iB: - 50 T_2_0 - 0.980198673307 c_2_B + d_2_2_0_B >= -50
c06_d_k2_j2_m1_iA: - 50 T_2_1 - 0.00990049833749 c_2_A + d_2_2_1_A >= -50
c06_d_k2_j2_m1_iB: - 50 T_2_1 - 0.0196039734661 c_2_B + d_2_2_1_B >= -50
c06_d_k2_j2_m2_iA: - 50 T_2_2 - 4.96679133402e-05 c_2_A + d_2_2_2_A >= -50
c06_d_k2_j2_m2_iB: - 50 T_2_2 - 0.00019735322711 c_2_B + d_2_2_2_B >= -50
c06_d_k2_j3_m0_iA: - 50 T_3_0 - 0.990049833749 c_2_A + d_2_3_0_A >= -50
c06_d_k2_j3_m0_iB: - 50 T_3_0 - 0.980198673307 c_2_B + d_2_3_0_B >= -50
c06_d_k2_j3_m1_iA: - 50 T_3_1 - 0.00990049833749 c_2_A + d_2_3_1_A >= -50
c06_d_k2_j3_m1_iB: - 50 T_3_1 - 0.0196039734661 c_2_B + d_2_3_1_B >= -50
c06_d_k2_j3_m2_iA: - 50 T_3_2 - 4.96679133402e-05 c_2_A + d_2_3_2_A >= -50
c06_d_k2_j3_m2_iB: - 50 T_3_2 - 0.00019735322711 c_2_B + d_2_3_2_B >= -50
c06_d_k2_j4_m0_iA: - 50 T_4_0 - 0.990049833749 c_2_A + d_2_4_0_A >= -50
c06_d_k2_j4_m0_iB: - 50 T_4_0 - 0.980198673307 c_2_B + d_2_4_0_B >= -50
c06_d_k2_j4_m1_iA: - 50 T_4_1 - 0.00990049833749 c_2_A + d_2_4_1_A >= -50
c06_d_k2_j4_m1_iB: - 50 T_4_1 - 0.0196039734661 c_2_B + d_2_4_1_B >= -50
c06_d_k2_j4_m2_iA: - 50 T_4_2 - 4.96679133402e-05 c_2_A + d_2_4_2_A >= -50
c06_d_k2_j4_m2_iB: - 50 T_4_2 - 0.00019735322711 c_2_B + d_2_4_2_B >= -50
c06_d_k2_j_1_m0_iA: - 50 T__1_0 - 0.990049833749 c_2_A + d_2__1_0_A >= -50
c06_d_k2_j_1_m0_iB: - 50 T__1_0 - 0.980198673307 c_2_B + d_2__1_0_B >= -50
c06_d_k2_j_1_m1_iA: - 50 T__1_1 - 0.00990049833749 c_2_A + d_2__1_1_A >= -50
c06_d_k2_j_1_m1_iB: - 50 T__1_1 - 0.0196039734661 c_2_B + d_2__1_1_B >= -50
c06_d_k2_j_1_m2_iA: - 50 T__1_2 - 4.96679133402e-05 c_2_A + d_2__1_2_A >= -50
c06_d_k2_j_1_m2_iB: - 50 T__1_2 - 0.00019735322711 c_2_B + d_2__1_2_B >= -50
c06_d_k2_j_2_m0_iA: - 50 T__2_0 - 0.990049833749 c_2_A + d_2__2_0_A >= -50
c06_d_k2_j_2_m0_iB: - 50 T__2_0 - 0.980198673307 c_2_B + d_2__2_0_B >= -50
c06_d_k2_j_2_m1_iA: - 50 T__2_1 - 0.00990049833749 c_2_A + d_2__2_1_A >= -50
c06_d_k2_j_2_m1_iB: - 50 T__2_1 - 0.0196039734661 c_2_B + d_2__2_1_B >= -50
c06_d_k2_j_2_m2_iA: - 50 T__2_2 - 4.96679133402e-05 c_2_A + d_2__2_2_A >= -50
c06_d_k2_j_2_m2_iB: - 50 T__2_2 - 0.00019735322711 c_2_B + d_2__2_2_B >= -50
c06_d_k2_j_3_m0_iA: - 50 T__3_0 - 0.990049833749 c_2_A + d_2__3_0_A >= -50
c06_d_k2_j_3_m0_iB: - 50 T__3_0 - 0.980198673307 c_2_B + d_2__3_0_B >= -50
c06_d_k2_j_3_m1_iA: - 50 T__3_1 - 0.00990049833749 c_2_A + d_2__3_1_A >= -50
c06_d_k2_j_3_m1_iB: - 50 T__3_1 - 0.0196039734661 c_2_B + d_2__3_1_B >= -50
c06_d_k2_j_3_m2_iA: - 50 T__3_2 - 4.96679133402e-05 c_2_A + d_2__3_2_A >= -50
c06_d_k2_j_3_m2_iB: - 50 T__3_2 - 0.00019735322711 c_2_B + d_2__3_2_B >= -50
c06_d_k2_j_4_m0_iA: - 50 T__4_0 - 0.990049833749 c_2_A + d_2__4_0_A >= -50
c06_d_k2_j_4_m0_iB: - 50 T__4_0 - 0.980198673307 c_2_B + d_2__4_0_B >= -50
c06_d_k2_j_4_m1_iA: - 50 T__4_1 - 0.00990049833749 c_2_A + d_2__4_1_A >= -50
c06_d_k2_j_4_m1_iB: - 50 T__4_1 - 0.0196039734661 c_2_B + d_2__4_1_B >= -50
c06_d_k2_j_4_m2_iA: - 50 T__4_2 - 4.96679133402e-05 c_2_A + d_2__4_2_A >= -50
c06_d_k2_j_4_m2_iB: - 50 T__4_2 - 0.00019735322711 c_2_B + d_2__4_2_B >= -50
c06_d_k3_j0_m0_iA: - 50 T_0_0 - 0.990049833749 c_3_A + d_3_0_0_A >= -50
c06_d_k3_j0_m0_iB: - 50 T_0_0 - 0.980198673307 c_3_B + d_3_0_0_B >= -50
c06_d_k3_j0_m1_iA: - 50 T_0_1 - 0.00990049833749 c_3_A + d_3_0_1_A >= -50
c06_d_k3_j0_m1_iB: - 50 T_0_1 - 0.0196039734661 c_3_B + d_3_0_1_B >= -50
c06_d_k3_j0_m2_iA: - 50 T_0_2 - 4.96679133402e-05 c_3_A + d_3_0_2_A >= -50
c06_d_k3_j0_m2_iB: - 50 T_0_2 - 0.00019735322711 c_3_B + d_3_0_2_B >= -50
c06_d_k3_j1_m0_iA: - 50 T_1_0 - 0.990049833749 c_3_A + d_3_1_0_A >= -50
c06_d_k3_j1_m0_iB: - 50 T_1_0 - 0.980198673307 c_3_B + d_3_1_0_B >= -50
c06_d_k3_j1_m1_iA: - 50 T_1_1 - 0.00990049833749 c_3_A + d_3_1_1_A >= -50
c06_d_k3_j1_m1_iB: - 50 T_1_1 - 0.0196039734661 c_3_B + d_3_1_1_B >= -50
c06_d_k3_j1_m2_iA: - 50 T_1_2 - 4.96679133402e-05 c_3_A + d_3_1_2_A >= -50
c06_d_k3_j1_m2_iB: - 50 T_1_2 - 0.00019735322711 c_3_B + d_3_1_2_B >= -50
c06_d_k3_j2_m0_iA: - 50 T_2_0 - 0.990049833749 c_3_A + d_3_2_0_A >= -50
c06_d_k3_j2_m0_iB: - 50 T_2_0 - 0.980198673307 c_3_B + d_3_2_0_B >= -50
c06_d_k3_j2_m1_iA: - 50 T_2_1 - 0.00990049833749 c_3_A + d_3_2_1_A >= -50
c06_d_k3_j2_m1_iB: - 50 T_2_1 - 0.0196039734661 c_3_B + d_3_2_1_B >= -50
c06_d_k3_j2_m2_iA: - 50 T_2_2 - 4.96679133402e-05 c_3_A + d_3_2_2_A >= -50
c06_d_k3_j2_m2_iB: - 50 T_2_2 - 0.00019735322711 c_3_B + d_3_2_2_B >= -50
c06_d_k3_j3_m0_iA: - 50 T_3_0 - 0.990049833749 c_3_A + d_3_3_0_A >= -50
c06_d_k3_j3_m0_iB: - 50 T_3_0 - 0.980198673307 c_3_B + d_3_3_0_B >= -50
c06_d_k3_j3_m1_iA: - 50 T_3_1 - 0.00990049833749 c_3_A + d_3_3_1_A >= -50
c06_d_k3_j3_m1_iB: - 50 T_3_1 - 0.0196039734661 c_3_B + d_3_3_1_B >= -50
c06_d_k3_j3_m2_iA: - 50 T_3_2 - 4.96679133402e-05 c_3_A + d_3_3_2_A >= -50
c06_d_k3_j3_m2_iB: - 50 T_3_2 - 0.00019735322711 c_3_B + d_3_3_2_B >= -50
c06_d_k3_j4_m0_iA: - 50 T_4_0 - 0.990049833749 c_3_A + d_3_4_0_A >= -50
c06_d_k3_j4_m0_iB: - 50 T_4_0 - 0.980198673307 c_3_B + d_3_4_0_B >= -50
c06_d_k3_j4_m1_iA: - 50 T_4_1 - 0.00990049833749 c_3_A + d_3_4_1_A >= -50
c06_d_k3_j4_m1_iB: - 50 T_4_1 - 0.0196039734661 c_3_B + d_3_4_1_B >= -50
c06_d_k3_j4_m2_iA: - 50 T_4_2 - 4.96679133402e-05 c_3_A + d_3_4_2_A >= -50
c06_d_k3_j4_m2_iB: - 50 T_4_2 - 0.00019735322711 c_3_B + d_3_4_2_B >= -50
c06_d_k3_j_1_m0_iA: - 50 T__1_0 - 0.990049833749 c_3_A + d_3__1_0_A >= -50
c06_d_k3_j_1_m0_iB: - 50 T__1_0 - 0.980198673307 c_3_B + d_3__1_0_B >= -50
c06_d_k3_j_1_m1_iA: - 50 T__1_1 - 0.00990049833749 c_3_A + d_3__1_1_A >= -50
c06_d_k3_j_1_m1_iB: - 50 T__1_1 - 0.0196039734661 c_3_B + d_3__1_1_B >= -50
c06_d_k3_j_1_m2_iA: - 50 T__1_2 - 4.96679133402e-05 c_3_A + d_3__1_2_A >= -50
c06_d_k3_j_1_m2_iB: - 50 T__1_2 - 0.00019735322711 c_3_B + d_3__1_2_B >= -50
c06_d_k3_j_2_m0_iA: - 50 T__2_0 - 0.990049833749 c_3_A + d_3__2_0_A >= -50
c06_d_k3_j_2_m0_iB: - 50 T__2_0 - 0.980198673307 c_3_B + d_3__2_0_B >= -50
c06_d_k3_j_2_m1_iA: - 50 T__2_1 - 0.00990049833749 c_3_A + d_3__2_1_A >= -50
c06_d_k3_j_2_m1_iB: - 50 T__2_1 - 0.0196039734661 c_3_B + d_3__2_1_B >= -50
c06_d_k3_j_2_m2_iA: - 50 T__2_2 - 4.96679133402e-05 c_3_A + d_3__2_2_A >= -50
c06_d_k3_j_2_m2_iB: - 50 T__2_2 - 0.00019735322711 c_3_B + d_3__2_2_B >= -50
c06_d_k3_j_3_m0_iA: - 50 T__3_0 - 0.990049833749 c_3_A + d_3__3_0_A >= -50
c06_d_k3_j_3_m0_iB: - 50 T__3_0 - 0.980198673307 c_3_B + d_3__3_0_B >= -50
c06_d_k3_j_3_m1_iA: - 50 T__3_1 - 0.00990049833749 c_3_A + d_3__3_1_A >= -50
c06_d_k3_j_3_m1_iB: - 50 T__3_1 - 0.0196039734661 c_3_B + d_3__3_1_B >= -50
c06_d_k3_j_3_m2_iA: - 50 T__3_2 - 4.96679133402e-05 c_3_A + d_3__3_2_A >= -50
c06_d_k3_j_3_m2_iB: - 50 T__3_2 - 0.00019735322711 c_3_B + d_3__3_2_B >= -50
c06_d_k3_j_4_m0_iA: - 50 T__4_0 - 0.990049833749 c_3_A + d_3__4_0_A >= -50
c06_d_k3_j_4_m0_iB: - 50 T__4_0 - 0.980198673307 c_3_B + d_3__4_0_B >= -50
c06_d_k3_j_4_m1_iA: - 50 T__4_1 - 0.00990049833749 c_3_A + d_3__4_1_A >= -50
c06_d_k3_j_4_m1_iB: - 50 T__4_1 - 0.0196039734661 c_3_B + d_3__4_1_B >= -50
c06_d_k3_j_4_m2_iA: - 50 T__4_2 - 4.96679133402e-05 c_3_A + d_3__4_2_A >= -50
c06_d_k3_j_4_m2_iB: - 50 T__4_2 - 0.00019735322711 c_3_B + d_3__4_2_B >= -50
c06_d_k4_j0_m0_iA: - 50 T_0_0 - 0.990049833749 c_4_A + d_4_0_0_A >= -50
c06_d_k4_j0_m0_iB: - 50 T_0_0 - 0.980198673307 c_4_B + d_4_0_0_B >= -50
c06_d_k4_j0_m1_iA: - 50 T_0_1 - 0.00990049833749 c_4_A + d_4_0_1_A >= -50
c06_d_k4_j0_m1_iB: - 50 T_0_1 - 0.0196039734661 c_4_B + d_4_0_1_B >= -50
c06_d_k4_j0_m2_iA: - 50 T_0_2 - 4.96679133402e-05 c_4_A + d_4_0_2_A >= -50
c06_d_k4_j0_m2_iB: - 50 T_0_2 - 0.00019735322711 c_4_B + d_4_0_2_B >= -50
c06_d_k4_j1_m0_iA: - 50 T_1_0 - 0.990049833749 c_4_A + d_4_1_0_A >= -50
c06_d_k4_j1_m0_iB: - 50 T_1_0 - 0.980198673307 c_4_B + d_4_1_0_B >= -50
c06_d_k4_j1_m1_iA: - 50 T_1_1 - 0.00990049833749 c_4_A + d_4_1_1_A >= -50
c06_d_k4_j1_m1_iB: - 50 T_1_1 - 0.0196039734661 c_4_B + d_4_1_1_B >= -50
c06_d_k4_j1_m2_iA: - 50 T_1_2 - 4.96679133402e-05 c_4_A + d_4_1_2_A >= -50
c06_d_k4_j1_m2_iB: - 50 T_1_2 - 0.00019735322711 c_4_B + d_4_1_2_B >= -50
c06_d_k4_j2_m0_iA: - 50 T_2_0 - 0.990049833749 c_4_A + d_4_2_0_A >= -50
c06_d_k4_j2_m0_iB: - 50 T_2_0 - 0.980198673307 c_4_B + d_4_2_0_B >= -50
c06_d_k4_j2_m1_iA: - 50 T_2_1 - 0.00990049833749 c_4_A + d_4_2_1_A >= -50
c06_d_k4_j2_m1_iB: - 50 T_2_1 - 0.0196039734661 c_4_B + d_4_2_1_B >= -50
c06_d_k4_j2_m2_iA: - 50 T_2_2 - 4.96679133402e-05 c_4_A + d_4_2_2_A >= -50
c06_d_k4_j2_m2_iB: - 50 T_2_2 - 0.00019735322711 c_4_B + d_4_2_2_B >= -50
c06_d_k4_j3_m0_iA: - 50 T_3_0 - 0.990049833749 c_4_A + d_4_3_0_A >= -50
c06_d_k4_j3_m0_iB: - 50 T_3_0 - 0.980198673307 c_4_B + d_4_3_0_B >= -50
c06_d_k4_j3_m1_iA: - 50 T_3_1 - 0.00990049833749 c_4_A + d_4_3_1_A >= -50
c06_d_k4_j3_m1_iB: - 50 T_3_1 - 0.0196039734661 c_4_B + d_4_3_1_B >= -50
c06_d_k4_j3_m2_iA: - 50 T_3_2 - 4.96679133402e-05 c_4_A + d_4_3_2_A >= -50
c06_d_k4_j3_m2_iB: - 50 T_3_2 - 0.00019735322711 c_4_B + d_4_3_2_B >= -50
c06_d_k4_j4_m0_iA: - 50 T_4_0 - 0.990049833749 c_4_A + d_4_4_0_A >= -50
c06_d_k4_j4_m0_iB: - 50 T_4_0 - 0.980198673307 c_4_B + d_4_4_0_B >= -50
c06_d_k4_j4_m1_iA: - 50 T_4_1 - 0.00990049833749 c_4_A + d_4_4_1_A >= -50
c06_d_k4_j4_m1_iB: - 50 T_4_1 - 0.0196039734661 c_4_B + d_4_4_1_B >= -50
c06_d_k4_j4_m2_iA: - 50 T_4_2 - 4.96679133402e-05 c_4_A + d_4_4_2_A >= -50
c06_d_k4_j4_m2_iB: - 50 T_4_2 - 0.00019735322711 c_4_B + d_4_4_2_B >= -50
c06_d_k4_j_1_m0_iA: - 50 T__1_0 - 0.990049833749 c_4_A + d_4__1_0_A >= -50
c06_d_k4_j_1_m0_iB: - 50 T__1_0 - 0.980198673307 c_4_B + d_4__1_0_B >= -50
c06_d_k4_j_1_m1_iA: - 50 T__1_1 - 0.00990049833749 c_4_A + d_4__1_1_A >= -50
c06_d_k4_j_1_m1_iB: - 50 T__1_1 - 0.0196039734661 c_4_B + d_4__1_1_B >= -50
c06_d_k4_j_1_m2_iA: - 50 T__1_2 - 4.96679133402e-05 c_4_A + d_4__1_2_A >= -50
c06_d_k4_j_1_m2_iB: - 50 T__1_2 - 0.00019735322711 c_4_B + d_4__1_2_B >= -50
c06_d_k4_j_2_m0_iA: - 50 T__2_0 - 0.990049833749 c_4_A + d_4__2_0_A >= -50
c06_d_k4_j_2_m0_iB: - 50 T__2_0 - 0.980198673307 c_4_B + d_4__2_0_B >= -50
c06_d_k4_j_2_m1_iA: - 50 T__2_1 - 0.00990049833749 c_4_A + d_4__2_1_A >= -50
c06_d_k4_j_2_m1_iB: - 50 T__2_1 - 0.0196039734661 c_4_B + d_4__2_1_B >= -50
c06_d_k4_j_2_m2_iA: - 50 T__2_2 - 4.96679133402e-05 c_4_A + d_4__2_2_A >= -50
c06_d_k4_j_2_m2_iB: - 50 T__2_2 - 0.00019735322711 c_4_B + d_4__2_2_B >= -50
c06_d_k4_j_3_m0_iA: - 50 T__3_0 - 0.990049833749 c_4_A + d_4__3_0_A >= -50
c06_d_k4_j_3_m0_iB: - 50 T__3_0 - 0.980198673307 c_4_B + d_4__3_0_B >= -50
c06_d_k4_j_3_m1_iA: - 50 T__3_1 - 0.00990049833749 c_4_A + d_4__3_1_A >= -50
c06_d_k4_j_3_m1_iB: - 50 T__3_1 - 0.0196039734661 c_4_B + d_4__3_1_B >= -50
c06_d_k4_j_3_m2_iA: - 50 T__3_2 - 4.96679133402e-05 c_4_A + d_4__3_2_A >= -50
c06_d_k4_j_3_m2_iB: - 50 T__3_2 - 0.00019735322711 c_4_B + d_4__3_2_B >= -50
c06_d_k4_j_4_m0_iA: - 50 T__4_0 - 0.990049833749 c_4_A + d_4__4_0_A >= -50
c06_d_k4_j_4_m0_iB: - 50 T__4_0 - 0.980198673307 c_4_B + d_4__4_0_B >= -50
c06_d_k4_j_4_m1_iA: - 50 T__4_1 - 0.00990049833749 c_4_A + d_4__4_1_A >= -50
c06_d_k4_j_4_m1_iB: - 50 T__4_1 - 0.0196039734661 c_4_B + d_4__4_1_B >= -50
c06_d_k4_j_4_m2_iA: - 50 T__4_2 - 4.96679133402e-05 c_4_A + d_4__4_2_A >= -50
c06_d_k4_j_4_m2_iB: - 50 T__4_2 - 0.00019735322711 c_4_B + d_4__4_2_B >= -50
c09_trk_k1_iA: c_1_A - d_0_1_0_A - d_0_1_1_A - d_0_1_2_A - d_1_0_0_A
 - d_1_0_1_A - d_1_0_2_A - d_2__1_0_A - d_2__1_1_A - d_2__1_2_A - d_3__2_0_A
 - d_3__2_1_A - d_3__2_2_A - d_4__3_0_A - d_4__3_1_A - d_4__3_2_A = 0
c09_trk_k1_iB: c_1_B - d_0_1_0_B - d_0_1_1_B - d_0_1_2_B - d_1_0_0_B
 - d_1_0_1_B - d_1_0_2_B - d_2__1_0_B - d_2__1_1_B - d_2__1_2_B - d_3__2_0_B
 - d_3__2_1_B - d_3__2_2_B - d_4__3_0_B - d_4__3_1_B - d_4__3_2_B = 0
c09_trk_k2_iA: c_2_A - d_0_2_0_A - d_0_2_1_A - d_0_2_2_A - d_1_1_0_A
 - d_1_1_1_A - d_1_1_2_A - d_2_0_0_A - d_2_0_1_A - d_2_0_2_A - d_3__1_0_A
 - d_3__1_1_A - d_3__1_2_A - d_4__2_0_A - d_4__2_1_A - d_4__2_2_A = 0
c09_trk_k2_iB: c_2_B - d_0_2_0_B - d_0_2_1_B - d_0_2_2_B - d_1_1_0_B
 - d_1_1_1_B - d_1_1_2_B - d_2_0_0_B - d_2_0_1_B - d_2_0_2_B - d_3__1_0_B
 - d_3__1_1_B - d_3__1_2_B - d_4__2_0_B - d_4__2_1_B - d_4__2_2_B = 0
c09_trk_k3_iA: c_3_A - d_0_3_0_A - d_0_3_1_A - d_0_3_2_A - d_1_2_0_A
 - d_1_2_1_A - d_1_2_2_A - d_2_1_0_A - d_2_1_1_A - d_2_1_2_A - d_3_0_0_A
 - d_3_0_1_A - d_3_0_2_A - d_4__1_0_A - d_4__1_1_A - d_4__1_2_A = 0
c09_trk_k3_iB: c_3_B - d_0_3_0_B - d_0_3_1_B - d_0_3_2_B - d_1_2_0_B
 - d_1_2_1_B - d_1_2_2_B - d_2_1_0_B - d_2_1_1_B - d_2_1_2_B - d_3_0_0_B
 - d_3_0_1_B - d_3_0_2_B - d_4__1_0_B - d_4__1_1_B - d_4__1_2_B = 0
c10_trkK_iA: c_4_A - d_0_4_0_A - d_0_4_1_A - d_0_4_2_A - d_1_3_0_A - d_1_3_1_A
 - d_1_3_2_A - d_1_4_0_A - d_1_4_1_A - d_1_4_2_A - d_2_2_0_A - d_2_2_1_A
 - d_2_2_2_A - d_2_3_0_A - d_2_3_1_A - d_2_3_2_A - d_2_4_0_A - d_2_4_1_A
 - d_2_4_2_A - d_3_1_0_A - d_3_1_1_A - d_3_1_2_A - d_3_2_0_A - d_3_2_1_A
 - d_3_2_2_A - d_3_3_0_A - d_3_3_1_A - d_3_3_2_A - d_3_4_0_A - d_3_4_1_A
 - d_3_4_2_A - d_4_0_0_A - d_4_0_1_A - d_4_0_2_A - d_4_1_0_A - d_4_1_1_A
 - d_4_1_2_A - d_4_2_0_A - d_4_2_1_A - d_4_2_2_A - d_4_3_0_A - d_4_3_1_A
 - d_4_3_2_A - d_4_4_0_A - d_4_4_1_A - d_4_4_2_A = 0
c10_trkK_iB: c_4_B - d_0_4_0_B - d_0_4_1_B - d_0_4_2_B - d_1_3_0_B - d_1_3_1_B
 - d_1_3_2_B - d_1_4_0_B - d_1_4_1_B - d_1_4_2_B - d_2_2_0_B - d_2_2_1_B
 - d_2_2_2_B - d_2_3_0_B - d_2_3_1_B - d_2_3_2_B - d_2_4_0_B - d_2_4_1_B
 - d_2_4_2_B - d_3_1_0_B - d_3_1_1_B - d_3_1_2_B - d_3_2_0_B - d_3_2_1_B
 - d_3_2_2_B - d_3_3_0_B - d_3_3_1_B - d_3_3_2_B - d_3_4_0_B - d_3_4_1_B
 - d_3_4_2_B - d_4_0_0_B - d_4_0_1_B - d_4_0_2_B - d_4_1_0_B - d_4_1_1_B
 - d_4_1_2_B - d_4_2_0_B - d_4_2_1_B - d_4_2_2_B - d_4_3_0_B - d_4_3_1_B
 - d_4_3_2_B - d_4_4_0_B - d_4_4_1_B - d_4_4_2_B = 0
c11_trk0_iA: c_0_A - d_0_0_0_A - d_0_0_1_A - d_0_0_2_A - d_0__1_0_A
 - d_0__1_1_A - d_0__1_2_A - d_0__2_0_A - d_0__2_1_A - d_0__2_2_A - d_0__3_0_A
 - d_0__3_1_A - d_0__3_2_A - d_0__4_0_A - d_0__4_1_A - d_0__4_2_A - d_1__1_0_A
 - d_1__1_1_A - d_1__1_2_A - d_1__2_0_A - d_1__2_1_A - d_1__2_2_A - d_1__3_0_A
 - d_1__3_1_A - d_1__3_2_A - d_1__4_0_A - d_1__4_1_A - d_1__4_2_A - d_2__2_0_A
 - d_2__2_1_A - d_2__2_2_A - d_2__3_0_A - d_2__3_1_A - d_2__3_2_A - d_2__4_0_A
 - d_2__4_1_A - d_2__4_2_A - d_3__3_0_A - d_3__3_1_A - d_3__3_2_A - d_3__4_0_A
 - d_3__4_1_A - d_3__4_2_A - d_4__4_0_A - d_4__4_1_A - d_4__4_2_A = 0
c11_trk0_iB: c_0_B - d_0_0_0_B - d_0_0_1_B - d_0_0_2_B - d_0__1_0_B
 - d_0__1_1_B - d_0__1_2_B - d_0__2_0_B - d_0__2_1_B - d_0__2_2_B - d_0__3_0_B
 - d_0__3_1_B - d_0__3_2_B - d_0__4_0_B - d_0__4_1_B - d_0__4_2_B - d_1__1_0_B
 - d_1__1_1_B - d_1__1_2_B - d_1__2_0_B - d_1__2_1_B - d_1__2_2_B - d_1__3_0_B
 - d_1__3_1_B - d_1__3_2_B - d_1__4_0_B - d_1__4_1_B - d_1__4_2_B - d_2__2_0_B
 - d_2__2_1_B - d_2__2_2_B - d_2__3_0_B - d_2__3_1_B - d_2__3_2_B - d_2__4_0_B
 - d_2__4_1_B - d_2__4_2_B - d_3__3_0_B - d_3__3_1_B - d_3__3_2_B - d_3__4_0_B
 - d_3__4_1_B - d_3__4_2_B - d_4__4_0_B - d_4__4_1_B - d_4__4_2_B = 0
c14_g_elteres_p_k0_iA: 0 c_0_A + g_0_A - on_0_0_A >= 0
c14_g_elteres_p_k0_iB: 0.01 c_0_B + g_0_B - on_0_0_B >= 0
c14_g_elteres_p_k1_iA: 0 c_1_A + g_1_A - on_1_0_A >= 0
c14_g_elteres_p_k1_iB: 0.01 c_1_B + g_1_B - on_1_0_B >= 0
c14_g_elteres_p_k2_iA: 0 c_2_A + g_2_A - on_2_0_A >= 0
c14_g_elteres_p_k2_iB: 0.01 c_2_B + g_2_B - on_2_0_B >= 0
c14_g_elteres_p_k3_iA: 0 c_3_A + g_3_A - on_3_0_A >= 0
c14_g_elteres_p_k3_iB: 0.01 c_3_B + g_3_B - on_3_0_B >= 0
c14_g_elteres_p_k4_iA: 0 c_4_A + g_4_A - on_4_0_A >= 0
c14_g_elteres_p_k4_iB: 0.01 c_4_B + g_4_B - on_4_0_B >= 0
c14b_g_elteres_n_k0_iA: 0 c_0_A - g_0_A - on_0_0_A <= 0
c14b_g_elteres_n_k0_iB: 0.01 c_0_B - g_0_B - on_0_0_B <= 0
c14b_g_elteres_n_k1_iA: 0 c_1_A - g_1_A - on_1_0_A <= 0
c14b_g_elteres_n_k1_iB: 0.01 c_1_B - g_1_B - on_1_0_B <= 0
c14b_g_elteres_n_k2_iA: 0 c_2_A - g_2_A - on_2_0_A <= 0
c14b_g_elteres_n_k2_iB: 0.01 c_2_B - g_2_B - on_2_0_B <= 0
c14b_g_elteres_n_k3_iA: 0 c_3_A - g_3_A - on_3_0_A <= 0
c14b_g_elteres_n_k3_iB: 0.01 c_3_B - g_3_B - on_3_0_B <= 0
c14b_g_elteres_n_k4_iA: 0 c_4_A - g_4_A - on_4_0_A <= 0
c14b_g_elteres_n_k4_iB: 0.01 c_4_B - g_4_B - on_4_0_B <= 0
c15_dijpoz_k0_iA: - 0.01 On_0_0 >= -0.01
c15_dijpoz_k0_iB: - 0.01 On_0_0 >= -0.03
c15_dijpoz_k1_iA: - 0.01 On_1_0 >= -0.01
c15_dijpoz_k1_iB: - 0.01 On_1_0 >= -0.03
c15_dijpoz_k2_iA: - 0.01 On_2_0 >= -0.01
c15_dijpoz_k2_iB: - 0.01 On_2_0 >= -0.03
c15_dijpoz_k3_iA: - 0.01 On_3_0 >= -0.01
c15_dijpoz_k3_iB: - 0.01 On_3_0 >= -0.03
c15_dijpoz_k4_iA: - 0.01 On_4_0 >= -0.01
c15_dijpoz_k4_iB: - 0.01 On_4_0 >= -0.03
c16_dijmon_k0: - 0.01 On_0_0 + 0.01 On_1_0 >= 0
c16_dijmon_k1: - 0.01 On_1_0 + 0.01 On_2_0 >= 0
c16_dijmon_k2: - 0.01 On_2_0 + 0.01 On_3_0 >= 0
c16_dijmon_k3: - 0.01 On_3_0 + 0.01 On_4_0 >= 0
c17a_on_also_k0_l0_iA: - 0.5 On_0_0 - 0.01 c_0_A + on_0_0_A >= -0.5
c17a_on_also_k0_l0_iB: - 0.5 On_0_0 - 0.01 c_0_B + on_0_0_B >= -0.5
c17a_on_also_k1_l0_iA: - 0.5 On_1_0 - 0.01 c_1_A + on_1_0_A >= -0.5
c17a_on_also_k1_l0_iB: - 0.5 On_1_0 - 0.01 c_1_B + on_1_0_B >= -0.5
c17a_on_also_k2_l0_iA: - 0.5 On_2_0 - 0.01 c_2_A + on_2_0_A >= -0.5
c17a_on_also_k2_l0_iB: - 0.5 On_2_0 - 0.01 c_2_B + on_2_0_B >= -0.5
c17a_on_also_k3_l0_iA: - 0.5 On_3_0 - 0.01 c_3_A + on_3_0_A >= -0.5
c17a_on_also_k3_l0_iB: - 0.5 On_3_0 - 0.01 c_3_B + on_3_0_B >= -0.5
c17a_on_also_k4_l0_iA: - 0.5 On_4_0 - 0.01 c_4_A + on_4_0_A >= -0.5
c17a_on_also_k4_l0_iB: - 0.5 On_4_0 - 0.01 c_4_B + on_4_0_B >= -0.5
c17b_on_felso_k0_l0_iA: - 0.01 c_0_A + on_0_0_A <= 0
c17b_on_felso_k0_l0_iB: - 0.01 c_0_B + on_0_0_B <= 0
c17b_on_felso_k1_l0_iA: - 0.01 c_1_A + on_1_0_A <= 0
c17b_on_felso_k1_l0_iB: - 0.01 c_1_B + on_1_0_B <= 0
c17b_on_felso_k2_l0_iA: - 0.01 c_2_A + on_2_0_A <= 0
c17b_on_felso_k2_l0_iB: - 0.01 c_2_B + on_2_0_B <= 0
c17b_on_felso_k3_l0_iA: - 0.01 c_3_A + on_3_0_A <= 0
c17b_on_felso_k3_l0_iB: - 0.01 c_3_B + on_3_0_B <= 0
c17b_on_felso_k4_l0_iA: - 0.01 c_4_A + on_4_0_A <= 0
c17b_on_felso_k4_l0_iB: - 0.01 c_4_B + on_4_0_B <= 0
c17c_on_bin_k0_l0_iA: - 0.5 On_0_0 + on_0_0_A <= 0
c17c_on_bin_k0_l0_iB: - 0.5 On_0_0 + on_0_0_B <= 0
c17c_on_bin_k1_l0_iA: - 0.5 On_1_0 + on_1_0_A <= 0
c17c_on_bin_k1_l0_iB: - 0.5 On_1_0 + on_1_0_B <= 0
c17c_on_bin_k2_l0_iA: - 0.5 On_2_0 + on_2_0_A <= 0
c17c_on_bin_k2_l0_iB: - 0.5 On_2_0 + on_2_0_B <= 0
c17c_on_bin_k3_l0_iA: - 0.5 On_3_0 + on_3_0_A <= 0
c17c_on_bin_k3_l0_iB: - 0.5 On_3_0 + on_3_0_B <= 0
c17c_on_bin_k4_l0_iA: - 0.5 On_4_0 + on_4_0_A <= 0
c17c_on_bin_k4_l0_iB: - 0.5 On_4_0 + on_4_0_B <= 0
c18_egyvalt0: On_0_0 <= 1
c18_egyvalt1: On_1_0 <= 1
c18_egyvalt2: On_2_0 <= 1
c18_egyvalt3: On_3_0 <= 1
c18_egyvalt4: On_4_0 <= 1
c_20_O_On0_0: O_0_0 - On_0_0 = 0
c_20_O_On1_0: O_1_0 - On_1_0 = 0
c_20_O_On2_0: O_2_0 - On_2_0 = 0
c_20_O_On3_0: O_3_0 - On_3_0 = 0
c_20_O_On4_0: O_4_0 - On_4_0 = 0
Bounds
 0 <= c_0_A
 0 <= c_0_B
 0 <= c_1_A
 0 <= c_1_B
 0 <= c_2_A
 0 <= c_2_B
 0 <= c_3_A
 0 <= c_3_B
 0 <= c_4_A
 0 <= c_4_B
 0 <= d_0_0_0_A
 0 <= d_0_0_0_B
 0 <= d_0_0_1_A
 0 <= d_0_0_1_B
 0 <= d_0_0_2_A
 0 <= d_0_0_2_B
 0 <= d_0_1_0_A
 0 <= d_0_1_0_B
 0 <= d_0_1_1_A
 0 <= d_0_1_1_B
 0 <= d_0_1_2_A
 0 <= d_0_1_2_B
 0 <= d_0_2_0_A
 0 <= d_0_2_0_B
 0 <= d_0_2_1_A
 0 <= d_0_2_1_B
 0 <= d_0_2_2_A
 0 <= d_0_2_2_B
 0 <= d_0_3_0_A
 0 <= d_0_3_0_B
 0 <= d_0_3_1_A
 0 <= d_0_3_1_B
 0 <= d_0_3_2_A
 0 <= d_0_3_2_B
 0 <= d_0_4_0_A
 0 <= d_0_4_0_B
 0 <= d_0_4_1_A
 0 <= d_0_4_1_B
 0 <= d_0_4_2_A
 0 <= d_0_4_2_B
 0 <= d_0__1_0_A
 0 <= d_0__1_0_B
 0 <= d_0__1_1_A
 0 <= d_0__1_1_B
 0 <= d_0__1_2_A
 0 <= d_0__1_2_B
 0 <= d_0__2_0_A
 0 <= d_0__2_0_B
 0 <= d_0__2_1_A
 0 <= d_0__2_1_B
 0 <= d_0__2_2_A
 0 <= d_0__2_2_B
 0 <= d_0__3_0_A
 0 <= d_0__3_0_B
 0 <= d_0__3_1_A
 0 <= d_0__3_1_B
 0 <= d_0__3_2_A
 0 <= d_0__3_2_B
 0 <= d_0__4_0_A
 0 <= d_0__4_0_B
 0 <= d_0__4_1_A
 0 <= d_0__4_1_B
 0 <= d_0__4_2_A
 0 <= d_0__4_2_B
 0 <= d_1_0_0_A
 0 <= d_1_0_0_B
 0 <= d_1_0_1_A
 0 <= d_1_0_1_B
 0 <= d_1_0_2_A
 0 <= d_1_0_2_B
 0 <= d_1_1_0_A
 0 <= d_1_1_0_B
 0 <= d_1_1_1_A
 0 <= d_1_1_1_B
 0 <= d_1_1_2_A
 0 <= d_1_1_2_B
 0 <= d_1_2_0_A
 0 <= d_1_2_0_B
 0 <= d_1_2_1_A
 0 <= d_1_2_1_B
 0 <= d_1_2_2_A
 0 <= d_1_2_2_B
 0 <= d_1_3_0_A
 0 <= d_1_3_0_B
 0 <= d_1_3_1_A
 0 <= d_1_3_1_B
 0 <= d_1_3_2_A
 0 <= d_1_3_2_B
 0 <= d_1_4_0_A
 0 <= d_1_4_0_B
 0 <= d_1_4_1_A
 0 <= d_1_4_1_B
 0 <= d_1_4_2_A
 0 <= d_1_4_2_B
 0 <= d_1__1_0_A
 0 <= d_1__1_0_B
 0 <= d_1__1_1_A
 0 <= d_1__1_1_B
 0 <= d_1__1_2_A
 0 <= d_1__1_2_B
 0 <= d_1__2_0_A
 0 <= d_1__2_0_B
 0 <= d_1__2_1_A
 0 <= d_1__2_1_B
 0 <= d_1__2_2_A
 0 <= d_1__2_2_B
 0 <= d_1__3_0_A
 0 <= d_1__3_0_B
 0 <= d_1__3_1_A
 0 <= d_1__3_1_B
 0 <= d_1__3_2_A
 0 <= d_1__3_2_B
 0 <= d_1__4_0_A
 0 <= d_1__4_0_B
 0 <= d_1__4_1_A
 0 <= d_1__4_1_B
 0 <= d_1__4_2_A
 0 <= d_1__4_2_B
 0 <= d_2_0_0_A
 0 <= d_2_0_0_B
 0 <= d_2_0_1_A
 0 <= d_2_0_1_B
 0 <= d_2_0_2_A
 0 <= d_2_0_2_B
 0 <= d_2_1_0_A
 0 <= d_2_1_0_B
 0 <= d_2_1_1_A
 0 <= d_2_1_1_B
 0 <= d_2_1_2_A
 0 <= d_2_1_2_B
 0 <= d_2_2_0_A
 0 <= d_2_2_0_B
 0 <= d_2_2_1_A
 0 <= d_2_2_1_B
 0 <= d_2_2_2_A
 0 <= d_2_2_2_B
 0 <= d_2_3_0_A
 0 <= d_2_3_0_B
 0 <= d_2_3_1_A
 0 <= d_2_3_1_B
 0 <= d_2_3_2_A
 0 <= d_2_3_2_B
 0 <= d_2_4_0_A
 0 <= d_2_4_0_B
 0 <= d_2_4_1_A
 0 <= d_2_4_1_B
 0 <= d_2_4_2_A
 0 <= d_2_4_2_B
 0 <= d_2__1_0_A
 0 <= d_2__1_0_B
 0 <= d_2__1_1_A
 0 <= d_2__1_1_B
 0 <= d_2__1_2_A
 0 <= d_2__1_2_B
 0 <= d_2__2_0_A
 0 <= d_2__2_0_B
 0 <= d_2__2_1_A
 0 <= d_2__2_1_B
 0 <= d_2__2_2_A
 0 <= d_2__2_2_B
 0 <= d_2__3_0_A
 0 <= d_2__3_0_B
 0 <= d_2__3_1_A
 0 <= d_2__3_1_B
 0 <= d_2__3_2_A
 0 <= d_2__3_2_B
 0 <= d_2__4_0_A
 0 <= d_2__4_0_B
 0 <= d_2__4_1_A
 0 <= d_2__4_1_B
 0 <= d_2__4_2_A
 0 <= d_2__4_2_B
 0 <= d_3_0_0_A
 0 <= d_3_0_0_B
 0 <= d_3_0_1_A
 0 <= d_3_0_1_B
 0 <= d_3_0_2_A
 0 <= d_3_0_2_B
 0 <= d_3_1_0_A
 0 <= d_3_1_0_B
 0 <= d_3_1_1_A
 0 <= d_3_1_1_B
 0 <= d_3_1_2_A
 0 <= d_3_1_2_B
 0 <= d_3_2_0_A
 0 <= d_3_2_0_B
 0 <= d_3_2_1_A
 0 <= d_3_2_1_B
 0 <= d_3_2_2_A
 0 <= d_3_2_2_B
 0 <= d_3_3_0_A
 0 <= d_3_3_0_B
 0 <= d_3_3_1_A
 0 <= d_3_3_1_B
 0 <= d_3_3_2_A
 0 <= d_3_3_2_B
 0 <= d_3_4_0_A
 0 <= d_3_4_0_B
 0 <= d_3_4_1_A
 0 <= d_3_4_1_B
 0 <= d_3_4_2_A
 0 <= d_3_4_2_B
 0 <= d_3__1_0_A
 0 <= d_3__1_0_B
 0 <= d_3__1_1_A
 0 <= d_3__1_1_B
 0 <= d_3__1_2_A
 0 <= d_3__1_2_B
 0 <= d_3__2_0_A
 0 <= d_3__2_0_B
 0 <= d_3__2_1_A
 0 <= d_3__2_1_B
 0 <= d_3__2_2_A
 0 <= d_3__2_2_B
 0 <= d_3__3_0_A
 0 <= d_3__3_0_B
 0 <= d_3__3_1_A
 0 <= d_3__3_1_B
 0 <= d_3__3_2_A
 0 <= d_3__3_2_B
 0 <= d_3__4_0_A
 0 <= d_3__4_0_B
 0 <= d_3__4_1_A
 0 <= d_3__4_1_B
 0 <= d_3__4_2_A
 0 <= d_3__4_2_B
 0 <= d_4_0_0_A
 0 <= d_4_0_0_B
 0 <= d_4_0_1_A
 0 <= d_4_0_1_B
 0 <= d_4_0_2_A
 0 <= d_4_0_2_B
 0 <= d_4_1_0_A
 0 <= d_4_1_0_B
 0 <= d_4_1_1_A
 0 <= d_4_1_1_B
 0 <= d_4_1_2_A
 0 <= d_4_1_2_B
 0 <= d_4_2_0_A
 0 <= d_4_2_0_B
 0 <= d_4_2_1_A
 0 <= d_4_2_1_B
 0 <= d_4_2_2_A
 0 <= d_4_2_2_B
 0 <= d_4_3_0_A
 0 <= d_4_3_0_B
 0 <= d_4_3_1_A
 0 <= d_4_3_1_B
 0 <= d_4_3_2_A
 0 <= d_4_3_2_B
 0 <= d_4_4_0_A
 0 <= d_4_4_0_B
 0 <= d_4_4_1_A
 0 <= d_4_4_1_B
 0 <= d_4_4_2_A
 0 <= d_4_4_2_B
 0 <= d_4__1_0_A
 0 <= d_4__1_0_B
 0 <= d_4__1_1_A
 0 <= d_4__1_1_B
 0 <= d_4__1_2_A
 0 <= d_4__1_2_B
 0 <= d_4__2_0_A
 0 <= d_4__2_0_B
 0 <= d_4__2_1_A
 0 <= d_4__2_1_B
 0 <= d_4__2_2_A
 0 <= d_4__2_2_B
 0 <= d_4__3_0_A
 0 <= d_4__3_0_B
 0 <= d_4__3_1_A
 0 <= d_4__3_1_B
 0 <= d_4__3_2_A
 0 <= d_4__3_2_B
 0 <= d_4__4_0_A
 0 <= d_4__4_0_B
 0 <= d_4__4_1_A
 0 <= d_4__4_1_B
 0 <= d_4__4_2_A
 0 <= d_4__4_2_B
 0 <= g_0_A
 0 <= g_0_B
 0 <= g_1_A
 0 <= g_1_B
 0 <= g_2_A
 0 <= g_2_B
 0 <= g_3_A
 0 <= g_3_B
 0 <= g_4_A
 0 <= g_4_B
 0 <= on_0_0_A
 0 <= on_0_0_B
 0 <= on_1_0_A
 0 <= on_1_0_B
 0 <= on_2_0_A
 0 <= on_2_0_B
 0 <= on_3_0_A
 0 <= on_3_0_B
 0 <= on_4_0_A
 0 <= on_4_0_B
Binaries
O_0_0
O_1_0
O_2_0
O_3_0
O_4_0
On_0_0
On_1_0
On_2_0
On_3_0
On_4_0
T_0_0
T_0_1
T_0_2
T_1_0
T_1_1
T_1_2
T_2_0
T_2_1
T_2_2
T_3_0
T_3_1
T_3_2
T_4_0
T_4_1
T_4_2
T__1_0
T__1_1
T__1_2
T__2_0
T__2_1
T__2_2
T__3_0
T__3_1
T__3_2
T__4_0
T__4_1
T__4_2
End
